experiments/knapsack_bounded/knapsack_bounded_5_9.mps.log
Algorithm statistics:
zero_reductions => 67
max_basis_size => 35
queued_pairs => 0
built_pairs => 134
reduced_pairs => 99
eliminated_by_truncation => 2
removed_by_autoreduction => 0
eliminated_by_gcd => 461
time => 0.004335693
memory => 0.0013036057353019714
4ti2 results
4ti2 time => 0.014522637
